Minimize
  2 x_daytime + 5 x_nighttime_painkiller
Subject To
  c1: 6 x_daytime + 5 x_nighttime_painkiller <= 800
  c2: 0.6 x_daytime - 0.4 x_nighttime_painkiller >= 0
  c3: x_nighttime_painkiller >= 200
End